NAME : 3C_40_80-02.20652.tour
COMMENT : Cost = 0_20652
COMMENT : Found by LKH [Keld Helsgaun] Thu Sep 14 11:32:31 2017
TYPE : TOUR
DIMENSION : 56
TOUR_SECTION
1
24
50
32
55
28
29
53
9
18
6
7
49
19
54
41
23
3
51
17
39
52
5
13
46
27
14
44
31
21
2
48
34
10
4
43
40
22
56
36
35
30
25
26
45
33
11
42
12
37
20
8
47
38
16
15
-1
EOF
